p cnf 200 1110
-101 19 0
-101 17 0
-101 -34 0
-101 -52 0
-101 81 0
-101 73 0
-101 -70 0
-101 -98 0
-101 61 0
-101 -75 0
101 -19 -17 34 52 -81 -73 70 98 -61 75 0
-102 -15 0
-102 -30 0
-102 55 0
-102 -36 0
-102 89 0
-102 45 0
-102 13 0
-102 92 0
-102 17 0
-102 47 0
102 15 30 -55 36 -89 -45 -13 -92 -17 -47 0
-103 -79 0
-103 7 0
-103 66 0
-103 -23 0
-103 -96 0
-103 55 0
-103 6 0
-103 88 0
-103 -60 0
-103 58 0
103 79 -7 -66 23 96 -55 -6 -88 60 -58 0
-104 99 0
-104 63 0
-104 97 0
-104 -27 0
-104 -85 0
-104 46 0
-104 -76 0
-104 22 0
-104 100 0
-104 80 0
104 -99 -63 -97 27 85 -46 76 -22 -100 -80 0
-105 -23 0
-105 66 0
-105 -27 0
-105 55 0
-105 94 0
-105 44 0
-105 85 0
-105 -64 0
-105 68 0
-105 31 0
105 23 -66 27 -55 -94 -44 -85 64 -68 -31 0
-106 65 0
-106 3 0
-106 37 0
-106 88 0
-106 -15 0
-106 89 0
-106 30 0
-106 -64 0
-106 -100 0
-106 -79 0
106 -65 -3 -37 -88 15 -89 -30 64 100 79 0
-107 94 0
-107 -86 0
-107 -92 0
-107 31 0
-107 25 0
-107 68 0
-107 -38 0
-107 -55 0
-107 24 0
-107 -58 0
107 -94 86 92 -31 -25 -68 38 55 -24 58 0
-108 -25 0
-108 55 0
-108 74 0
-108 -5 0
-108 75 0
-108 29 0
-108 51 0
-108 47 0
-108 -10 0
-108 -36 0
108 25 -55 -74 5 -75 -29 -51 -47 10 36 0
-109 -37 0
-109 1 0
-109 9 0
-109 11 0
-109 16 0
-109 -51 0
-109 -89 0
-109 48 0
-109 3 0
-109 40 0
109 37 -1 -9 -11 -16 51 89 -48 -3 -40 0
-110 -81 0
-110 -15 0
-110 93 0
-110 12 0
-110 36 0
-110 43 0
-110 -63 0
-110 -35 0
-110 16 0
-110 -45 0
110 81 15 -93 -12 -36 -43 63 35 -16 45 0
101 102 103 104 105 106 107 108 109 110 0
-111 -51 0
-111 -66 0
-111 -52 0
-111 33 0
-111 -39 0
-111 -78 0
-111 -91 0
-111 96 0
-111 76 0
-111 31 0
111 51 66 52 -33 39 78 91 -96 -76 -31 0
-112 9 0
-112 -54 0
-112 -19 0
-112 -21 0
-112 -43 0
-112 14 0
-112 -59 0
-112 -4 0
-112 -5 0
-112 44 0
112 -9 54 19 21 43 -14 59 4 5 -44 0
-113 43 0
-113 36 0
-113 2 0
-113 -89 0
-113 -38 0
-113 25 0
-113 100 0
-113 45 0
-113 73 0
-113 -46 0
113 -43 -36 -2 89 38 -25 -100 -45 -73 46 0
-114 -15 0
-114 11 0
-114 93 0
-114 -87 0
-114 50 0
-114 -77 0
-114 -55 0
-114 4 0
-114 84 0
-114 86 0
114 15 -11 -93 87 -50 77 55 -4 -84 -86 0
-115 -81 0
-115 49 0
-115 -98 0
-115 -42 0
-115 80 0
-115 18 0
-115 -15 0
-115 22 0
-115 97 0
-115 14 0
115 81 -49 98 42 -80 -18 15 -22 -97 -14 0
-116 29 0
-116 82 0
-116 54 0
-116 -93 0
-116 -63 0
-116 40 0
-116 -80 0
-116 -92 0
-116 7 0
-116 4 0
116 -29 -82 -54 93 63 -40 80 92 -7 -4 0
-117 -24 0
-117 45 0
-117 74 0
-117 71 0
-117 -20 0
-117 -81 0
-117 -25 0
-117 90 0
-117 -37 0
-117 32 0
117 24 -45 -74 -71 20 81 25 -90 37 -32 0
-118 12 0
-118 -42 0
-118 -92 0
-118 -85 0
-118 -50 0
-118 -83 0
-118 -14 0
-118 21 0
-118 66 0
-118 19 0
118 -12 42 92 85 50 83 14 -21 -66 -19 0
-119 2 0
-119 -70 0
-119 -41 0
-119 9 0
-119 -39 0
-119 93 0
-119 19 0
-119 -96 0
-119 -72 0
-119 5 0
119 -2 70 41 -9 39 -93 -19 96 72 -5 0
-120 -17 0
-120 47 0
-120 1 0
-120 20 0
-120 -69 0
-120 -12 0
-120 -25 0
-120 83 0
-120 -63 0
-120 -7 0
120 17 -47 -1 -20 69 12 25 -83 63 7 0
111 112 113 114 115 116 117 118 119 120 0
-121 -74 0
-121 -98 0
-121 -53 0
-121 17 0
-121 -34 0
-121 47 0
-121 -88 0
-121 78 0
-121 -15 0
-121 25 0
121 74 98 53 -17 34 -47 88 -78 15 -25 0
-122 19 0
-122 25 0
-122 -70 0
-122 21 0
-122 28 0
-122 -56 0
-122 -83 0
-122 97 0
-122 36 0
-122 -99 0
122 -19 -25 70 -21 -28 56 83 -97 -36 99 0
-123 65 0
-123 83 0
-123 78 0
-123 56 0
-123 -92 0
-123 -45 0
-123 -85 0
-123 -26 0
-123 58 0
-123 -76 0
123 -65 -83 -78 -56 92 45 85 26 -58 76 0
-124 -43 0
-124 -67 0
-124 -73 0
-124 31 0
-124 62 0
-124 -27 0
-124 -45 0
-124 -39 0
-124 96 0
-124 -55 0
124 43 67 73 -31 -62 27 45 39 -96 55 0
-125 72 0
-125 -30 0
-125 52 0
-125 5 0
-125 -71 0
-125 49 0
-125 -28 0
-125 -57 0
-125 -15 0
-125 -7 0
125 -72 30 -52 -5 71 -49 28 57 15 7 0
-126 -23 0
-126 -71 0
-126 82 0
-126 78 0
-126 18 0
-126 -61 0
-126 70 0
-126 -27 0
-126 -60 0
-126 -47 0
126 23 71 -82 -78 -18 61 -70 27 60 47 0
-127 55 0
-127 72 0
-127 -27 0
-127 79 0
-127 98 0
-127 -71 0
-127 2 0
-127 -85 0
-127 -97 0
-127 81 0
127 -55 -72 27 -79 -98 71 -2 85 97 -81 0
-128 19 0
-128 21 0
-128 -34 0
-128 -57 0
-128 36 0
-128 -13 0
-128 -14 0
-128 -32 0
-128 -16 0
-128 -82 0
128 -19 -21 34 57 -36 13 14 32 16 82 0
-129 93 0
-129 -40 0
-129 57 0
-129 35 0
-129 -74 0
-129 -75 0
-129 12 0
-129 -55 0
-129 -65 0
-129 51 0
129 -93 40 -57 -35 74 75 -12 55 65 -51 0
-130 34 0
-130 26 0
-130 48 0
-130 -70 0
-130 79 0
-130 -52 0
-130 -93 0
-130 -29 0
-130 66 0
-130 -91 0
130 -34 -26 -48 70 -79 52 93 29 -66 91 0
121 122 123 124 125 126 127 128 129 130 0
-131 66 0
-131 -89 0
-131 90 0
-131 -86 0
-131 -39 0
-131 52 0
-131 15 0
-131 -87 0
-131 -28 0
-131 24 0
131 -66 89 -90 86 39 -52 -15 87 28 -24 0
-132 78 0
-132 16 0
-132 82 0
-132 -15 0
-132 -75 0
-132 36 0
-132 -88 0
-132 59 0
-132 6 0
-132 -90 0
132 -78 -16 -82 15 75 -36 88 -59 -6 90 0
-133 -16 0
-133 65 0
-133 37 0
-133 45 0
-133 63 0
-133 24 0
-133 98 0
-133 99 0
-133 19 0
-133 68 0
133 16 -65 -37 -45 -63 -24 -98 -99 -19 -68 0
-134 -23 0
-134 -7 0
-134 96 0
-134 49 0
-134 -72 0
-134 -65 0
-134 -1 0
-134 83 0
-134 -61 0
-134 -58 0
134 23 7 -96 -49 72 65 1 -83 61 58 0
-135 -57 0
-135 -82 0
-135 -33 0
-135 -27 0
-135 -77 0
-135 -25 0
-135 -19 0
-135 73 0
-135 78 0
-135 -68 0
135 57 82 33 27 77 25 19 -73 -78 68 0
-136 98 0
-136 27 0
-136 -41 0
-136 39 0
-136 22 0
-136 -48 0
-136 53 0
-136 -18 0
-136 -96 0
-136 36 0
136 -98 -27 41 -39 -22 48 -53 18 96 -36 0
-137 73 0
-137 -9 0
-137 80 0
-137 -4 0
-137 -19 0
-137 67 0
-137 5 0
-137 -28 0
-137 -49 0
-137 -21 0
137 -73 9 -80 4 19 -67 -5 28 49 21 0
-138 86 0
-138 -83 0
-138 -89 0
-138 -78 0
-138 -65 0
-138 63 0
-138 82 0
-138 30 0
-138 -60 0
-138 94 0
138 -86 83 89 78 65 -63 -82 -30 60 -94 0
-139 83 0
-139 8 0
-139 -45 0
-139 53 0
-139 -20 0
-139 73 0
-139 43 0
-139 13 0
-139 57 0
-139 -88 0
139 -83 -8 45 -53 20 -73 -43 -13 -57 88 0
-140 -5 0
-140 70 0
-140 -60 0
-140 -45 0
-140 68 0
-140 -94 0
-140 -93 0
-140 -57 0
-140 -78 0
-140 -12 0
140 5 -70 60 45 -68 94 93 57 78 12 0
131 132 133 134 135 136 137 138 139 140 0
-141 -59 0
-141 2 0
-141 35 0
-141 -20 0
-141 -72 0
-141 -49 0
-141 15 0
-141 18 0
-141 -12 0
-141 -84 0
141 59 -2 -35 20 72 49 -15 -18 12 84 0
-142 -32 0
-142 -34 0
-142 -26 0
-142 95 0
-142 9 0
-142 58 0
-142 30 0
-142 -86 0
-142 28 0
-142 29 0
142 32 34 26 -95 -9 -58 -30 86 -28 -29 0
-143 -59 0
-143 -13 0
-143 16 0
-143 -63 0
-143 -47 0
-143 64 0
-143 7 0
-143 5 0
-143 -31 0
-143 74 0
143 59 13 -16 63 47 -64 -7 -5 31 -74 0
-144 8 0
-144 71 0
-144 -94 0
-144 -79 0
-144 -67 0
-144 -91 0
-144 66 0
-144 -12 0
-144 9 0
-144 69 0
144 -8 -71 94 79 67 91 -66 12 -9 -69 0
-145 -84 0
-145 59 0
-145 7 0
-145 22 0
-145 26 0
-145 -9 0
-145 -95 0
-145 -75 0
-145 28 0
-145 -86 0
145 84 -59 -7 -22 -26 9 95 75 -28 86 0
-146 -96 0
-146 37 0
-146 58 0
-146 -9 0
-146 73 0
-146 -48 0
-146 46 0
-146 -3 0
-146 70 0
-146 -74 0
146 96 -37 -58 9 -73 48 -46 3 -70 74 0
-147 59 0
-147 -34 0
-147 -36 0
-147 38 0
-147 42 0
-147 -91 0
-147 -83 0
-147 55 0
-147 14 0
-147 -17 0
147 -59 34 36 -38 -42 91 83 -55 -14 17 0
-148 23 0
-148 88 0
-148 -85 0
-148 -22 0
-148 74 0
-148 -63 0
-148 -11 0
-148 -31 0
-148 -17 0
-148 72 0
148 -23 -88 85 22 -74 63 11 31 17 -72 0
-149 64 0
-149 85 0
-149 32 0
-149 -73 0
-149 -66 0
-149 76 0
-149 97 0
-149 -1 0
-149 -62 0
-149 -88 0
149 -64 -85 -32 73 66 -76 -97 1 62 88 0
-150 -85 0
-150 -27 0
-150 -49 0
-150 -100 0
-150 20 0
-150 90 0
-150 -93 0
-150 81 0
-150 -79 0
-150 91 0
150 85 27 49 100 -20 -90 93 -81 79 -91 0
141 142 143 144 145 146 147 148 149 150 0
-151 57 0
-151 77 0
-151 66 0
-151 -33 0
-151 -70 0
-151 -62 0
-151 -17 0
-151 40 0
-151 -25 0
-151 45 0
151 -57 -77 -66 33 70 62 17 -40 25 -45 0
-152 35 0
-152 43 0
-152 28 0
-152 10 0
-152 45 0
-152 -95 0
-152 -72 0
-152 -18 0
-152 -94 0
-152 38 0
152 -35 -43 -28 -10 -45 95 72 18 94 -38 0
-153 -11 0
-153 23 0
-153 -69 0
-153 3 0
-153 -50 0
-153 13 0
-153 84 0
-153 -56 0
-153 34 0
-153 -49 0
153 11 -23 69 -3 50 -13 -84 56 -34 49 0
-154 69 0
-154 41 0
-154 61 0
-154 26 0
-154 18 0
-154 29 0
-154 -91 0
-154 72 0
-154 46 0
-154 -9 0
154 -69 -41 -61 -26 -18 -29 91 -72 -46 9 0
-155 -38 0
-155 75 0
-155 -31 0
-155 69 0
-155 -17 0
-155 67 0
-155 28 0
-155 9 0
-155 -14 0
-155 51 0
155 38 -75 31 -69 17 -67 -28 -9 14 -51 0
-156 -62 0
-156 81 0
-156 49 0
-156 -87 0
-156 -88 0
-156 -47 0
-156 82 0
-156 95 0
-156 16 0
-156 31 0
156 62 -81 -49 87 88 47 -82 -95 -16 -31 0
-157 -79 0
-157 15 0
-157 -50 0
-157 -66 0
-157 69 0
-157 -91 0
-157 -81 0
-157 -29 0
-157 46 0
-157 -70 0
157 79 -15 50 66 -69 91 81 29 -46 70 0
-158 55 0
-158 -36 0
-158 90 0
-158 20 0
-158 -24 0
-158 17 0
-158 35 0
-158 -30 0
-158 6 0
-158 -51 0
158 -55 36 -90 -20 24 -17 -35 30 -6 51 0
-159 90 0
-159 -46 0
-159 -49 0
-159 42 0
-159 97 0
-159 -85 0
-159 19 0
-159 28 0
-159 -16 0
-159 3 0
159 -90 46 49 -42 -97 85 -19 -28 16 -3 0
-160 -25 0
-160 15 0
-160 14 0
-160 55 0
-160 -38 0
-160 98 0
-160 76 0
-160 34 0
-160 56 0
-160 41 0
160 25 -15 -14 -55 38 -98 -76 -34 -56 -41 0
151 152 153 154 155 156 157 158 159 160 0
-161 69 0
-161 75 0
-161 47 0
-161 29 0
-161 91 0
-161 -83 0
-161 92 0
-161 -55 0
-161 -11 0
-161 -63 0
161 -69 -75 -47 -29 -91 83 -92 55 11 63 0
-162 35 0
-162 93 0
-162 -30 0
-162 62 0
-162 53 0
-162 -80 0
-162 71 0
-162 68 0
-162 66 0
-162 70 0
162 -35 -93 30 -62 -53 80 -71 -68 -66 -70 0
-163 -42 0
-163 -13 0
-163 78 0
-163 11 0
-163 20 0
-163 -17 0
-163 -33 0
-163 55 0
-163 39 0
-163 84 0
163 42 13 -78 -11 -20 17 33 -55 -39 -84 0
-164 93 0
-164 1 0
-164 -37 0
-164 96 0
-164 52 0
-164 -59 0
-164 -38 0
-164 -87 0
-164 84 0
-164 -5 0
164 -93 -1 37 -96 -52 59 38 87 -84 5 0
-165 -68 0
-165 28 0
-165 81 0
-165 -49 0
-165 -64 0
-165 95 0
-165 18 0
-165 -85 0
-165 32 0
-165 -87 0
165 68 -28 -81 49 64 -95 -18 85 -32 87 0
-166 -45 0
-166 -14 0
-166 84 0
-166 -5 0
-166 62 0
-166 49 0
-166 -34 0
-166 87 0
-166 -72 0
-166 65 0
166 45 14 -84 5 -62 -49 34 -87 72 -65 0
-167 48 0
-167 24 0
-167 70 0
-167 74 0
-167 7 0
-167 28 0
-167 -77 0
-167 -50 0
-167 -87 0
-167 10 0
167 -48 -24 -70 -74 -7 -28 77 50 87 -10 0
-168 -52 0
-168 95 0
-168 -15 0
-168 -35 0
-168 37 0
-168 -53 0
-168 -91 0
-168 66 0
-168 27 0
-168 -70 0
168 52 -95 15 35 -37 53 91 -66 -27 70 0
-169 6 0
-169 -40 0
-169 -36 0
-169 55 0
-169 31 0
-169 47 0
-169 57 0
-169 -39 0
-169 -74 0
-169 52 0
169 -6 40 36 -55 -31 -47 -57 39 74 -52 0
-170 -59 0
-170 -16 0
-170 -14 0
-170 18 0
-170 82 0
-170 -87 0
-170 94 0
-170 67 0
-170 22 0
-170 33 0
170 59 16 14 -18 -82 87 -94 -67 -22 -33 0
161 162 163 164 165 166 167 168 169 170 0
-171 -55 0
-171 -65 0
-171 -20 0
-171 26 0
-171 68 0
-171 -74 0
-171 -61 0
-171 -93 0
-171 21 0
-171 49 0
171 55 65 20 -26 -68 74 61 93 -21 -49 0
-172 86 0
-172 -53 0
-172 85 0
-172 -25 0
-172 87 0
-172 -81 0
-172 -23 0
-172 79 0
-172 96 0
-172 -55 0
172 -86 53 -85 25 -87 81 23 -79 -96 55 0
-173 97 0
-173 47 0
-173 -12 0
-173 8 0
-173 25 0
-173 -4 0
-173 2 0
-173 49 0
-173 84 0
-173 46 0
173 -97 -47 12 -8 -25 4 -2 -49 -84 -46 0
-174 20 0
-174 89 0
-174 -91 0
-174 -45 0
-174 -19 0
-174 95 0
-174 -12 0
-174 33 0
-174 96 0
-174 34 0
174 -20 -89 91 45 19 -95 12 -33 -96 -34 0
-175 -60 0
-175 57 0
-175 -99 0
-175 -65 0
-175 64 0
-175 -78 0
-175 28 0
-175 -26 0
-175 93 0
-175 39 0
175 60 -57 99 65 -64 78 -28 26 -93 -39 0
-176 -7 0
-176 -36 0
-176 -30 0
-176 -43 0
-176 -49 0
-176 -11 0
-176 46 0
-176 -44 0
-176 -54 0
-176 17 0
176 7 36 30 43 49 11 -46 44 54 -17 0
-177 100 0
-177 -64 0
-177 -6 0
-177 -65 0
-177 -69 0
-177 -36 0
-177 55 0
-177 -68 0
-177 46 0
-177 39 0
177 -100 64 6 65 69 36 -55 68 -46 -39 0
-178 71 0
-178 -48 0
-178 -12 0
-178 5 0
-178 15 0
-178 -37 0
-178 -57 0
-178 33 0
-178 100 0
-178 -8 0
178 -71 48 12 -5 -15 37 57 -33 -100 8 0
-179 98 0
-179 81 0
-179 -62 0
-179 42 0
-179 -52 0
-179 63 0
-179 89 0
-179 -36 0
-179 49 0
-179 -59 0
179 -98 -81 62 -42 52 -63 -89 36 -49 59 0
-180 -22 0
-180 18 0
-180 -66 0
-180 -81 0
-180 29 0
-180 97 0
-180 68 0
-180 -70 0
-180 -42 0
-180 82 0
180 22 -18 66 81 -29 -97 -68 70 42 -82 0
171 172 173 174 175 176 177 178 179 180 0
-181 -84 0
-181 88 0
-181 -96 0
-181 -24 0
-181 -58 0
-181 -12 0
-181 -13 0
-181 82 0
-181 99 0
-181 81 0
181 84 -88 96 24 58 12 13 -82 -99 -81 0
-182 19 0
-182 15 0
-182 -4 0
-182 -96 0
-182 -67 0
-182 -78 0
-182 32 0
-182 70 0
-182 -84 0
-182 87 0
182 -19 -15 4 96 67 78 -32 -70 84 -87 0
-183 -81 0
-183 -62 0
-183 -71 0
-183 -78 0
-183 -44 0
-183 -18 0
-183 88 0
-183 -33 0
-183 -55 0
-183 -70 0
183 81 62 71 78 44 18 -88 33 55 70 0
-184 -3 0
-184 52 0
-184 38 0
-184 37 0
-184 -69 0
-184 -64 0
-184 -72 0
-184 -73 0
-184 -47 0
-184 -91 0
184 3 -52 -38 -37 69 64 72 73 47 91 0
-185 -77 0
-185 -29 0
-185 -11 0
-185 -12 0
-185 51 0
-185 -56 0
-185 -63 0
-185 -53 0
-185 -78 0
-185 -21 0
185 77 29 11 12 -51 56 63 53 78 21 0
-186 -59 0
-186 93 0
-186 -34 0
-186 -30 0
-186 -84 0
-186 92 0
-186 18 0
-186 38 0
-186 -45 0
-186 -32 0
186 59 -93 34 30 84 -92 -18 -38 45 32 0
-187 -45 0
-187 53 0
-187 -23 0
-187 15 0
-187 73 0
-187 62 0
-187 11 0
-187 -86 0
-187 -96 0
-187 33 0
187 45 -53 23 -15 -73 -62 -11 86 96 -33 0
-188 -40 0
-188 -69 0
-188 -51 0
-188 34 0
-188 78 0
-188 57 0
-188 -63 0
-188 -70 0
-188 27 0
-188 60 0
188 40 69 51 -34 -78 -57 63 70 -27 -60 0
-189 39 0
-189 -59 0
-189 71 0
-189 -21 0
-189 81 0
-189 -38 0
-189 -65 0
-189 -90 0
-189 69 0
-189 37 0
189 -39 59 -71 21 -81 38 65 90 -69 -37 0
-190 -10 0
-190 28 0
-190 -92 0
-190 -3 0
-190 -11 0
-190 47 0
-190 -14 0
-190 32 0
-190 -64 0
-190 -67 0
190 10 -28 92 3 11 -47 14 -32 64 67 0
181 182 183 184 185 186 187 188 189 190 0
-191 84 0
-191 -95 0
-191 69 0
-191 14 0
-191 -44 0
-191 90 0
-191 -97 0
-191 -37 0
-191 87 0
-191 79 0
191 -84 95 -69 -14 44 -90 97 37 -87 -79 0
-192 -26 0
-192 86 0
-192 88 0
-192 7 0
-192 97 0
-192 44 0
-192 60 0
-192 -77 0
-192 62 0
-192 46 0
192 26 -86 -88 -7 -97 -44 -60 77 -62 -46 0
-193 76 0
-193 26 0
-193 -5 0
-193 39 0
-193 -89 0
-193 29 0
-193 3 0
-193 -12 0
-193 78 0
-193 -18 0
193 -76 -26 5 -39 89 -29 -3 12 -78 18 0
-194 -19 0
-194 -22 0
-194 -90 0
-194 72 0
-194 -30 0
-194 -7 0
-194 57 0
-194 -73 0
-194 -60 0
-194 -50 0
194 19 22 90 -72 30 7 -57 73 60 50 0
-195 41 0
-195 38 0
-195 67 0
-195 77 0
-195 -83 0
-195 -62 0
-195 29 0
-195 75 0
-195 1 0
-195 81 0
195 -41 -38 -67 -77 83 62 -29 -75 -1 -81 0
-196 -64 0
-196 96 0
-196 46 0
-196 -83 0
-196 54 0
-196 -30 0
-196 -27 0
-196 -100 0
-196 -35 0
-196 -39 0
196 64 -96 -46 83 -54 30 27 100 35 39 0
-197 58 0
-197 18 0
-197 -4 0
-197 23 0
-197 78 0
-197 80 0
-197 75 0
-197 -29 0
-197 -24 0
-197 95 0
197 -58 -18 4 -23 -78 -80 -75 29 24 -95 0
-198 -40 0
-198 -75 0
-198 -14 0
-198 -41 0
-198 91 0
-198 -96 0
-198 71 0
-198 -64 0
-198 60 0
-198 67 0
198 40 75 14 41 -91 96 -71 64 -60 -67 0
-199 -79 0
-199 56 0
-199 32 0
-199 26 0
-199 58 0
-199 2 0
-199 52 0
-199 9 0
-199 30 0
-199 65 0
199 79 -56 -32 -26 -58 -2 -52 -9 -30 -65 0
-200 -83 0
-200 62 0
-200 87 0
-200 -1 0
-200 -89 0
-200 -33 0
-200 8 0
-200 82 0
-200 -40 0
-200 79 0
200 83 -62 -87 1 89 33 -8 -82 40 -79 0
191 192 193 194 195 196 197 198 199 200 0
